8297
9717
7351
5504
10027
10003
3083
2096
8894
1466
3111
4808
3447
2852
5511
5474
6231
8666
8036
7757
6674
8953
10081
7772
4460
8379
1835
2089
427
8205
6143
1298
4476
760
3495
4440
2970
7295
923
4516
7592
6121
1814
1471
4078
8810
5530
3766
6144
5256
